1436501.0
1208
3 4 6 7 8 12 16 18 20 22 23 29 32 33 36 37 38 39 40 41 43 47 48 50 51 52 53 56 66 67 68 69 74 79 81 83 85 87 89 90 92 94 97 99 100 107 108 110 112 114 115 117 124 128 130 131 133 134 135 136 137 143 146 147 148 149 150 151 154 156 162 163 164 165 166 168 171 173 175 180 181 182 183 184 185 187 191 195 